pair_coeff         1    1  tanhlr/cut/domainab        0.000000    -0.051915    -0.298190 1.50  2.50
pair_coeff         1    2  tanhlr/cut/domainab        0.000000     0.032837    -0.082856 1.50  2.50
pair_coeff         1    3  tanhlr/cut/domainab        0.000000    -0.015727    -0.171398 1.50  2.50
pair_coeff         1    4  tanhlr/cut/domainab        0.000000     0.000000     0.000000 1.50  2.50
pair_coeff         2    2  tanhlr/cut/domainab        0.000000    -0.071795    -0.168044 1.50  2.50
pair_coeff         2    3  tanhlr/cut/domainab        0.000000    -0.063146    -0.262911 1.50  2.50
pair_coeff         2    4  tanhlr/cut/domainab        0.000000     0.000000     0.000000 1.50  2.50
pair_coeff         3    3  tanhlr/cut/domainab        0.000000    -0.350400    -0.463110 1.50  2.50
pair_coeff         3    4  tanhlr/cut/domainab        0.000000     0.000000     0.000000 1.50  2.50
pair_coeff         4    4  tanhlr/cut/domainab        0.000000     0.000000     0.000000 1.50  2.50
